; benchmark generated from python API
(set-info :status unknown)
(declare-fun cell_1_6 () Int)
(declare-fun cell_2_3 () Int)
(declare-fun cell_3_7 () Int)
(declare-fun cell_4_2 () Int)
(declare-fun cell_5_4 () Int)
(declare-fun cell_6_8 () Int)
(declare-fun cell_1_1 () Int)
(declare-fun cell_2_1 () Int)
(declare-fun cell_3_1 () Int)
(declare-fun cell_4_1 () Int)
(declare-fun cell_5_1 () Int)
(declare-fun cell_6_1 () Int)
(declare-fun cell_7_1 () Int)
(declare-fun cell_8_1 () Int)
(declare-fun cell_9_1 () Int)
(declare-fun cell_1_2 () Int)
(declare-fun cell_2_2 () Int)
(declare-fun cell_3_2 () Int)
(declare-fun cell_5_2 () Int)
(declare-fun cell_6_2 () Int)
(declare-fun cell_7_2 () Int)
(declare-fun cell_8_2 () Int)
(declare-fun cell_9_2 () Int)
(declare-fun cell_1_3 () Int)
(declare-fun cell_3_3 () Int)
(declare-fun cell_4_3 () Int)
(declare-fun cell_5_3 () Int)
(declare-fun cell_6_3 () Int)
(declare-fun cell_7_3 () Int)
(declare-fun cell_8_3 () Int)
(declare-fun cell_9_3 () Int)
(declare-fun cell_1_4 () Int)
(declare-fun cell_2_4 () Int)
(declare-fun cell_3_4 () Int)
(declare-fun cell_4_4 () Int)
(declare-fun cell_6_4 () Int)
(declare-fun cell_7_4 () Int)
(declare-fun cell_8_4 () Int)
(declare-fun cell_9_4 () Int)
(declare-fun cell_1_5 () Int)
(declare-fun cell_2_5 () Int)
(declare-fun cell_3_5 () Int)
(declare-fun cell_4_5 () Int)
(declare-fun cell_5_5 () Int)
(declare-fun cell_6_5 () Int)
(declare-fun cell_7_5 () Int)
(declare-fun cell_8_5 () Int)
(declare-fun cell_9_5 () Int)
(declare-fun cell_2_6 () Int)
(declare-fun cell_3_6 () Int)
(declare-fun cell_4_6 () Int)
(declare-fun cell_5_6 () Int)
(declare-fun cell_6_6 () Int)
(declare-fun cell_7_6 () Int)
(declare-fun cell_8_6 () Int)
(declare-fun cell_9_6 () Int)
(declare-fun cell_1_7 () Int)
(declare-fun cell_2_7 () Int)
(declare-fun cell_4_7 () Int)
(declare-fun cell_5_7 () Int)
(declare-fun cell_6_7 () Int)
(declare-fun cell_7_7 () Int)
(declare-fun cell_8_7 () Int)
(declare-fun cell_9_7 () Int)
(declare-fun cell_1_8 () Int)
(declare-fun cell_2_8 () Int)
(declare-fun cell_3_8 () Int)
(declare-fun cell_4_8 () Int)
(declare-fun cell_5_8 () Int)
(declare-fun cell_7_8 () Int)
(declare-fun cell_8_8 () Int)
(declare-fun cell_9_8 () Int)
(declare-fun cell_1_9 () Int)
(declare-fun cell_2_9 () Int)
(declare-fun cell_3_9 () Int)
(declare-fun cell_4_9 () Int)
(declare-fun cell_5_9 () Int)
(declare-fun cell_6_9 () Int)
(declare-fun cell_7_9 () Int)
(declare-fun cell_8_9 () Int)
(declare-fun cell_9_9 () Int)
(assert
 (= cell_1_6 1))
(assert
 (= cell_2_3 1))
(assert
 (= cell_3_7 1))
(assert
 (= cell_4_2 1))
(assert
 (= cell_5_4 1))
(assert
 (= cell_6_8 1))
(assert
 (let (($x2581 (= cell_1_1 9)))
 (let (($x6569 (= cell_1_1 8)))
 (let (($x246 (= cell_1_1 7)))
 (let (($x7621 (= cell_1_1 6)))
 (let (($x10031 (= cell_1_1 5)))
 (let (($x3458 (= cell_1_1 4)))
 (let (($x1100 (= cell_1_1 3)))
 (let (($x7017 (= cell_1_1 2)))
 (let (($x6912 (= cell_1_1 1)))
 (or $x6912 $x7017 $x1100 $x3458 $x10031 $x7621 $x246 $x6569 $x2581)))))))))))
(assert
 (let (($x10041 (= cell_2_1 9)))
 (let (($x7897 (= cell_2_1 8)))
 (let (($x7711 (= cell_2_1 7)))
 (let (($x2382 (= cell_2_1 6)))
 (let (($x3136 (= cell_2_1 5)))
 (let (($x5745 (= cell_2_1 4)))
 (let (($x6109 (= cell_2_1 3)))
 (let (($x9441 (= cell_2_1 2)))
 (let (($x2019 (= cell_2_1 1)))
 (or $x2019 $x9441 $x6109 $x5745 $x3136 $x2382 $x7711 $x7897 $x10041)))))))))))
(assert
 (let (($x9458 (= cell_3_1 9)))
 (let (($x2084 (= cell_3_1 8)))
 (let (($x4049 (= cell_3_1 7)))
 (let (($x8456 (= cell_3_1 6)))
 (let (($x5364 (= cell_3_1 5)))
 (let (($x5865 (= cell_3_1 4)))
 (let (($x439 (= cell_3_1 3)))
 (let (($x3825 (= cell_3_1 2)))
 (let (($x3814 (= cell_3_1 1)))
 (or $x3814 $x3825 $x439 $x5865 $x5364 $x8456 $x4049 $x2084 $x9458)))))))))))
(assert
 (let (($x6230 (= cell_4_1 9)))
 (let (($x2147 (= cell_4_1 8)))
 (let (($x8007 (= cell_4_1 7)))
 (let (($x4782 (= cell_4_1 6)))
 (let (($x6451 (= cell_4_1 5)))
 (let (($x6882 (= cell_4_1 4)))
 (let (($x7425 (= cell_4_1 3)))
 (let (($x7773 (= cell_4_1 2)))
 (let (($x5335 (= cell_4_1 1)))
 (or $x5335 $x7773 $x7425 $x6882 $x6451 $x4782 $x8007 $x2147 $x6230)))))))))))
(assert
 (let (($x3799 (= cell_5_1 9)))
 (let (($x6148 (= cell_5_1 8)))
 (let (($x9778 (= cell_5_1 7)))
 (let (($x2041 (= cell_5_1 6)))
 (let (($x1609 (= cell_5_1 5)))
 (let (($x5150 (= cell_5_1 4)))
 (let (($x6647 (= cell_5_1 3)))
 (let (($x5485 (= cell_5_1 2)))
 (let (($x6408 (= cell_5_1 1)))
 (or $x6408 $x5485 $x6647 $x5150 $x1609 $x2041 $x9778 $x6148 $x3799)))))))))))
(assert
 (let (($x3299 (= cell_6_1 9)))
 (let (($x10209 (= cell_6_1 8)))
 (let (($x6906 (= cell_6_1 7)))
 (let (($x3151 (= cell_6_1 6)))
 (let (($x6814 (= cell_6_1 5)))
 (let (($x619 (= cell_6_1 4)))
 (let (($x5759 (= cell_6_1 3)))
 (let (($x1663 (= cell_6_1 2)))
 (let (($x3592 (= cell_6_1 1)))
 (or $x3592 $x1663 $x5759 $x619 $x6814 $x3151 $x6906 $x10209 $x3299)))))))))))
(assert
 (or (= cell_7_1 1) (= cell_7_1 2) (= cell_7_1 3) (= cell_7_1 4) (= cell_7_1 5) (= cell_7_1 6) (= cell_7_1 7) (= cell_7_1 8) (= cell_7_1 9)))
(assert
 (let (($x3405 (= cell_8_1 1)))
 (or $x3405 (= cell_8_1 2) (= cell_8_1 3) (= cell_8_1 4) (= cell_8_1 5) (= cell_8_1 6) (= cell_8_1 7) (= cell_8_1 8) (= cell_8_1 9))))
(assert
 (or (= cell_9_1 1) (= cell_9_1 2) (= cell_9_1 3) (= cell_9_1 4) (= cell_9_1 5) (= cell_9_1 6) (= cell_9_1 7) (= cell_9_1 8) (= cell_9_1 9)))
(assert
 (let (($x684 (= cell_1_2 9)))
 (let (($x5811 (= cell_1_2 8)))
 (let (($x25 (= cell_1_2 7)))
 (let (($x2157 (= cell_1_2 6)))
 (let (($x9120 (= cell_1_2 5)))
 (let (($x7624 (= cell_1_2 4)))
 (let (($x8699 (= cell_1_2 3)))
 (let (($x8111 (= cell_1_2 2)))
 (let (($x4847 (= cell_1_2 1)))
 (or $x4847 $x8111 $x8699 $x7624 $x9120 $x2157 $x25 $x5811 $x684)))))))))))
(assert
 (let (($x7838 (= cell_2_2 9)))
 (let (($x9119 (= cell_2_2 8)))
 (let (($x6784 (= cell_2_2 7)))
 (let (($x2506 (= cell_2_2 6)))
 (let (($x9547 (= cell_2_2 5)))
 (let (($x6346 (= cell_2_2 4)))
 (let (($x6480 (= cell_2_2 3)))
 (let (($x66 (= cell_2_2 2)))
 (let (($x4113 (= cell_2_2 1)))
 (or $x4113 $x66 $x6480 $x6346 $x9547 $x2506 $x6784 $x9119 $x7838)))))))))))
(assert
 (let (($x7732 (= cell_3_2 9)))
 (let (($x2140 (= cell_3_2 8)))
 (let (($x3672 (= cell_3_2 7)))
 (let (($x8788 (= cell_3_2 6)))
 (let (($x5052 (= cell_3_2 5)))
 (let (($x2659 (= cell_3_2 4)))
 (let (($x3994 (= cell_3_2 3)))
 (let (($x6125 (= cell_3_2 2)))
 (let (($x9851 (= cell_3_2 1)))
 (or $x9851 $x6125 $x3994 $x2659 $x5052 $x8788 $x3672 $x2140 $x7732)))))))))))
(assert
 (let (($x735 (= cell_4_2 1)))
 (or $x735 (= cell_4_2 2) (= cell_4_2 3) (= cell_4_2 4) (= cell_4_2 5) (= cell_4_2 6) (= cell_4_2 7) (= cell_4_2 8) (= cell_4_2 9))))
(assert
 (let (($x8136 (= cell_5_2 9)))
 (let (($x5775 (= cell_5_2 8)))
 (let (($x2674 (= cell_5_2 7)))
 (let (($x1825 (= cell_5_2 6)))
 (let (($x2926 (= cell_5_2 5)))
 (let (($x2871 (= cell_5_2 4)))
 (let (($x9971 (= cell_5_2 3)))
 (let (($x1688 (= cell_5_2 2)))
 (let (($x9026 (= cell_5_2 1)))
 (or $x9026 $x1688 $x9971 $x2871 $x2926 $x1825 $x2674 $x5775 $x8136)))))))))))
(assert
 (let (($x2012 (= cell_6_2 9)))
 (let (($x2411 (= cell_6_2 8)))
 (let (($x4616 (= cell_6_2 7)))
 (let (($x8478 (= cell_6_2 6)))
 (let (($x5074 (= cell_6_2 5)))
 (let (($x5575 (= cell_6_2 4)))
 (let (($x2500 (= cell_6_2 3)))
 (let (($x7404 (= cell_6_2 2)))
 (let (($x4972 (= cell_6_2 1)))
 (or $x4972 $x7404 $x2500 $x5575 $x5074 $x8478 $x4616 $x2411 $x2012)))))))))))
(assert
 (let (($x5526 (= cell_7_2 1)))
 (or $x5526 (= cell_7_2 2) (= cell_7_2 3) (= cell_7_2 4) (= cell_7_2 5) (= cell_7_2 6) (= cell_7_2 7) (= cell_7_2 8) (= cell_7_2 9))))
(assert
 (let (($x7747 (= cell_8_2 1)))
 (or $x7747 (= cell_8_2 2) (= cell_8_2 3) (= cell_8_2 4) (= cell_8_2 5) (= cell_8_2 6) (= cell_8_2 7) (= cell_8_2 8) (= cell_8_2 9))))
(assert
 (let (($x8276 (= cell_9_2 1)))
 (or $x8276 (= cell_9_2 2) (= cell_9_2 3) (= cell_9_2 4) (= cell_9_2 5) (= cell_9_2 6) (= cell_9_2 7) (= cell_9_2 8) (= cell_9_2 9))))
(assert
 (let (($x9866 (= cell_1_3 9)))
 (let (($x3291 (= cell_1_3 8)))
 (let (($x6098 (= cell_1_3 7)))
 (let (($x9188 (= cell_1_3 6)))
 (let (($x4496 (= cell_1_3 5)))
 (let (($x4859 (= cell_1_3 4)))
 (let (($x8340 (= cell_1_3 3)))
 (let (($x7833 (= cell_1_3 2)))
 (let (($x3058 (= cell_1_3 1)))
 (or $x3058 $x7833 $x8340 $x4859 $x4496 $x9188 $x6098 $x3291 $x9866)))))))))))
(assert
 (let (($x3739 (= cell_2_3 1)))
 (or $x3739 (= cell_2_3 2) (= cell_2_3 3) (= cell_2_3 4) (= cell_2_3 5) (= cell_2_3 6) (= cell_2_3 7) (= cell_2_3 8) (= cell_2_3 9))))
(assert
 (let (($x7706 (= cell_3_3 9)))
 (let (($x8874 (= cell_3_3 8)))
 (let (($x74 (= cell_3_3 7)))
 (let (($x3028 (= cell_3_3 6)))
 (let (($x7984 (= cell_3_3 5)))
 (let (($x9906 (= cell_3_3 4)))
 (let (($x463 (= cell_3_3 3)))
 (let (($x5815 (= cell_3_3 2)))
 (let (($x3742 (= cell_3_3 1)))
 (or $x3742 $x5815 $x463 $x9906 $x7984 $x3028 $x74 $x8874 $x7706)))))))))))
(assert
 (let (($x192 (= cell_4_3 9)))
 (let (($x10018 (= cell_4_3 8)))
 (let (($x6634 (= cell_4_3 7)))
 (let (($x3087 (= cell_4_3 6)))
 (let (($x569 (= cell_4_3 5)))
 (let (($x4881 (= cell_4_3 4)))
 (let (($x614 (= cell_4_3 3)))
 (let (($x8979 (= cell_4_3 2)))
 (let (($x9948 (= cell_4_3 1)))
 (or $x9948 $x8979 $x614 $x4881 $x569 $x3087 $x6634 $x10018 $x192)))))))))))
(assert
 (let (($x3095 (= cell_5_3 9)))
 (let (($x2975 (= cell_5_3 8)))
 (let (($x7025 (= cell_5_3 7)))
 (let (($x9728 (= cell_5_3 6)))
 (let (($x4358 (= cell_5_3 5)))
 (let (($x4889 (= cell_5_3 4)))
 (let (($x6741 (= cell_5_3 3)))
 (let (($x2175 (= cell_5_3 2)))
 (let (($x5879 (= cell_5_3 1)))
 (or $x5879 $x2175 $x6741 $x4889 $x4358 $x9728 $x7025 $x2975 $x3095)))))))))))
(assert
 (let (($x9749 (= cell_6_3 9)))
 (let (($x3293 (= cell_6_3 8)))
 (let (($x9791 (= cell_6_3 7)))
 (let (($x4380 (= cell_6_3 6)))
 (let (($x632 (= cell_6_3 5)))
 (let (($x301 (= cell_6_3 4)))
 (let (($x1737 (= cell_6_3 3)))
 (let (($x5140 (= cell_6_3 2)))
 (let (($x6803 (= cell_6_3 1)))
 (or $x6803 $x5140 $x1737 $x301 $x632 $x4380 $x9791 $x3293 $x9749)))))))))))
(assert
 (let (($x8091 (= cell_7_3 1)))
 (or $x8091 (= cell_7_3 2) (= cell_7_3 3) (= cell_7_3 4) (= cell_7_3 5) (= cell_7_3 6) (= cell_7_3 7) (= cell_7_3 8) (= cell_7_3 9))))
(assert
 (let (($x1801 (= cell_8_3 1)))
 (or $x1801 (= cell_8_3 2) (= cell_8_3 3) (= cell_8_3 4) (= cell_8_3 5) (= cell_8_3 6) (= cell_8_3 7) (= cell_8_3 8) (= cell_8_3 9))))
(assert
 (let (($x6827 (= cell_9_3 1)))
 (or $x6827 (= cell_9_3 2) (= cell_9_3 3) (= cell_9_3 4) (= cell_9_3 5) (= cell_9_3 6) (= cell_9_3 7) (= cell_9_3 8) (= cell_9_3 9))))
(assert
 (let (($x1725 (= cell_1_4 9)))
 (let (($x4745 (= cell_1_4 8)))
 (let (($x2528 (= cell_1_4 7)))
 (let (($x4170 (= cell_1_4 6)))
 (let (($x4239 (= cell_1_4 5)))
 (let (($x9067 (= cell_1_4 4)))
 (let (($x7405 (= cell_1_4 3)))
 (let (($x10233 (= cell_1_4 2)))
 (let (($x5660 (= cell_1_4 1)))
 (or $x5660 $x10233 $x7405 $x9067 $x4239 $x4170 $x2528 $x4745 $x1725)))))))))))
(assert
 (let (($x2194 (= cell_2_4 9)))
 (let (($x8903 (= cell_2_4 8)))
 (let (($x2474 (= cell_2_4 7)))
 (let (($x193 (= cell_2_4 6)))
 (let (($x8694 (= cell_2_4 5)))
 (let (($x4110 (= cell_2_4 4)))
 (let (($x4721 (= cell_2_4 3)))
 (let (($x1566 (= cell_2_4 2)))
 (let (($x763 (= cell_2_4 1)))
 (or $x763 $x1566 $x4721 $x4110 $x8694 $x193 $x2474 $x8903 $x2194)))))))))))
(assert
 (let (($x8888 (= cell_3_4 9)))
 (let (($x9172 (= cell_3_4 8)))
 (let (($x4594 (= cell_3_4 7)))
 (let (($x9593 (= cell_3_4 6)))
 (let (($x8345 (= cell_3_4 5)))
 (let (($x518 (= cell_3_4 4)))
 (let (($x8037 (= cell_3_4 3)))
 (let (($x81 (= cell_3_4 2)))
 (let (($x491 (= cell_3_4 1)))
 (or $x491 $x81 $x8037 $x518 $x8345 $x9593 $x4594 $x9172 $x8888)))))))))))
(assert
 (let (($x2278 (= cell_4_4 9)))
 (let (($x9946 (= cell_4_4 8)))
 (let (($x7696 (= cell_4_4 7)))
 (let (($x9956 (= cell_4_4 6)))
 (let (($x6387 (= cell_4_4 5)))
 (let (($x1305 (= cell_4_4 4)))
 (let (($x9551 (= cell_4_4 3)))
 (let (($x323 (= cell_4_4 2)))
 (let (($x3005 (= cell_4_4 1)))
 (or $x3005 $x323 $x9551 $x1305 $x6387 $x9956 $x7696 $x9946 $x2278)))))))))))
(assert
 (let (($x7361 (= cell_5_4 1)))
 (or $x7361 (= cell_5_4 2) (= cell_5_4 3) (= cell_5_4 4) (= cell_5_4 5) (= cell_5_4 6) (= cell_5_4 7) (= cell_5_4 8) (= cell_5_4 9))))
(assert
 (let (($x8361 (= cell_6_4 9)))
 (let (($x6516 (= cell_6_4 8)))
 (let (($x3698 (= cell_6_4 7)))
 (let (($x3369 (= cell_6_4 6)))
 (let (($x6273 (= cell_6_4 5)))
 (let (($x4675 (= cell_6_4 4)))
 (let (($x1809 (= cell_6_4 3)))
 (let (($x3629 (= cell_6_4 2)))
 (let (($x646 (= cell_6_4 1)))
 (or $x646 $x3629 $x1809 $x4675 $x6273 $x3369 $x3698 $x6516 $x8361)))))))))))
(assert
 (let (($x2230 (= cell_7_4 1)))
 (or $x2230 (= cell_7_4 2) (= cell_7_4 3) (= cell_7_4 4) (= cell_7_4 5) (= cell_7_4 6) (= cell_7_4 7) (= cell_7_4 8) (= cell_7_4 9))))
(assert
 (let (($x352 (= cell_8_4 1)))
 (or $x352 (= cell_8_4 2) (= cell_8_4 3) (= cell_8_4 4) (= cell_8_4 5) (= cell_8_4 6) (= cell_8_4 7) (= cell_8_4 8) (= cell_8_4 9))))
(assert
 (let (($x4451 (= cell_9_4 1)))
 (or $x4451 (= cell_9_4 2) (= cell_9_4 3) (= cell_9_4 4) (= cell_9_4 5) (= cell_9_4 6) (= cell_9_4 7) (= cell_9_4 8) (= cell_9_4 9))))
(assert
 (let (($x1208 (= cell_1_5 9)))
 (let (($x1592 (= cell_1_5 8)))
 (let (($x24 (= cell_1_5 7)))
 (let (($x928 (= cell_1_5 6)))
 (let (($x2062 (= cell_1_5 5)))
 (let (($x869 (= cell_1_5 4)))
 (let (($x408 (= cell_1_5 3)))
 (let (($x7579 (= cell_1_5 2)))
 (let (($x9842 (= cell_1_5 1)))
 (or $x9842 $x7579 $x408 $x869 $x2062 $x928 $x24 $x1592 $x1208)))))))))))
(assert
 (let (($x8970 (= cell_2_5 1)))
 (or $x8970 (= cell_2_5 2) (= cell_2_5 3) (= cell_2_5 4) (= cell_2_5 5) (= cell_2_5 6) (= cell_2_5 7) (= cell_2_5 8) (= cell_2_5 9))))
(assert
 (let (($x8294 (= cell_3_5 9)))
 (let (($x458 (= cell_3_5 8)))
 (let (($x822 (= cell_3_5 7)))
 (let (($x10019 (= cell_3_5 6)))
 (let (($x71 (= cell_3_5 5)))
 (let (($x7970 (= cell_3_5 4)))
 (let (($x9437 (= cell_3_5 3)))
 (let (($x3732 (= cell_3_5 2)))
 (let (($x7346 (= cell_3_5 1)))
 (or $x7346 $x3732 $x9437 $x7970 $x71 $x10019 $x822 $x458 $x8294)))))))))))
(assert
 (let (($x2543 (= cell_4_5 9)))
 (let (($x8551 (= cell_4_5 8)))
 (let (($x6607 (= cell_4_5 7)))
 (let (($x2287 (= cell_4_5 6)))
 (let (($x8098 (= cell_4_5 5)))
 (let (($x7296 (= cell_4_5 4)))
 (let (($x9960 (= cell_4_5 3)))
 (let (($x4526 (= cell_4_5 2)))
 (let (($x9415 (= cell_4_5 1)))
 (or $x9415 $x4526 $x9960 $x7296 $x8098 $x2287 $x6607 $x8551 $x2543)))))))))))
(assert
 (let (($x1683 (= cell_5_5 1)))
 (or $x1683 (= cell_5_5 2) (= cell_5_5 3) (= cell_5_5 4) (= cell_5_5 5) (= cell_5_5 6) (= cell_5_5 7) (= cell_5_5 8) (= cell_5_5 9))))
(assert
 (let (($x1996 (= cell_6_5 9)))
 (let (($x5444 (= cell_6_5 8)))
 (let (($x6232 (= cell_6_5 7)))
 (let (($x7505 (= cell_6_5 6)))
 (let (($x1224 (= cell_6_5 5)))
 (let (($x2415 (= cell_6_5 4)))
 (let (($x3503 (= cell_6_5 3)))
 (let (($x4379 (= cell_6_5 2)))
 (let (($x6088 (= cell_6_5 1)))
 (or $x6088 $x4379 $x3503 $x2415 $x1224 $x7505 $x6232 $x5444 $x1996)))))))))))
(assert
 (let (($x9284 (= cell_7_5 1)))
 (or $x9284 (= cell_7_5 2) (= cell_7_5 3) (= cell_7_5 4) (= cell_7_5 5) (= cell_7_5 6) (= cell_7_5 7) (= cell_7_5 8) (= cell_7_5 9))))
(assert
 (or (= cell_8_5 1) (= cell_8_5 2) (= cell_8_5 3) (= cell_8_5 4) (= cell_8_5 5) (= cell_8_5 6) (= cell_8_5 7) (= cell_8_5 8) (= cell_8_5 9)))
(assert
 (or (= cell_9_5 1) (= cell_9_5 2) (= cell_9_5 3) (= cell_9_5 4) (= cell_9_5 5) (= cell_9_5 6) (= cell_9_5 7) (= cell_9_5 8) (= cell_9_5 9)))
(assert
 (let (($x6478 (= cell_1_6 1)))
 (or $x6478 (= cell_1_6 2) (= cell_1_6 3) (= cell_1_6 4) (= cell_1_6 5) (= cell_1_6 6) (= cell_1_6 7) (= cell_1_6 8) (= cell_1_6 9))))
(assert
 (let (($x7614 (= cell_2_6 9)))
 (let (($x3245 (= cell_2_6 8)))
 (let (($x1419 (= cell_2_6 7)))
 (let (($x1299 (= cell_2_6 6)))
 (let (($x8732 (= cell_2_6 5)))
 (let (($x8779 (= cell_2_6 4)))
 (let (($x7783 (= cell_2_6 3)))
 (let (($x6445 (= cell_2_6 2)))
 (let (($x10050 (= cell_2_6 1)))
 (or $x10050 $x6445 $x7783 $x8779 $x8732 $x1299 $x1419 $x3245 $x7614)))))))))))
(assert
 (let (($x803 (= cell_3_6 9)))
 (let (($x1712 (= cell_3_6 8)))
 (let (($x347 (= cell_3_6 7)))
 (let (($x5200 (= cell_3_6 6)))
 (let (($x4664 (= cell_3_6 5)))
 (let (($x895 (= cell_3_6 4)))
 (let (($x6652 (= cell_3_6 3)))
 (let (($x1708 (= cell_3_6 2)))
 (let (($x2545 (= cell_3_6 1)))
 (or $x2545 $x1708 $x6652 $x895 $x4664 $x5200 $x347 $x1712 $x803)))))))))))
(assert
 (let (($x291 (= cell_4_6 9)))
 (let (($x7036 (= cell_4_6 8)))
 (let (($x9196 (= cell_4_6 7)))
 (let (($x3387 (= cell_4_6 6)))
 (let (($x2406 (= cell_4_6 5)))
 (let (($x1205 (= cell_4_6 4)))
 (let (($x8144 (= cell_4_6 3)))
 (let (($x5583 (= cell_4_6 2)))
 (let (($x9102 (= cell_4_6 1)))
 (or $x9102 $x5583 $x8144 $x1205 $x2406 $x3387 $x9196 $x7036 $x291)))))))))))
(assert
 (let (($x9278 (= cell_5_6 1)))
 (or $x9278 (= cell_5_6 2) (= cell_5_6 3) (= cell_5_6 4) (= cell_5_6 5) (= cell_5_6 6) (= cell_5_6 7) (= cell_5_6 8) (= cell_5_6 9))))
(assert
 (let (($x5458 (= cell_6_6 9)))
 (let (($x7689 (= cell_6_6 8)))
 (let (($x7777 (= cell_6_6 7)))
 (let (($x5592 (= cell_6_6 6)))
 (let (($x3288 (= cell_6_6 5)))
 (let (($x3900 (= cell_6_6 4)))
 (let (($x926 (= cell_6_6 3)))
 (let (($x4143 (= cell_6_6 2)))
 (let (($x3129 (= cell_6_6 1)))
 (or $x3129 $x4143 $x926 $x3900 $x3288 $x5592 $x7777 $x7689 $x5458)))))))))))
(assert
 (let (($x6874 (= cell_7_6 1)))
 (or $x6874 (= cell_7_6 2) (= cell_7_6 3) (= cell_7_6 4) (= cell_7_6 5) (= cell_7_6 6) (= cell_7_6 7) (= cell_7_6 8) (= cell_7_6 9))))
(assert
 (let (($x8718 (= cell_8_6 1)))
 (or $x8718 (= cell_8_6 2) (= cell_8_6 3) (= cell_8_6 4) (= cell_8_6 5) (= cell_8_6 6) (= cell_8_6 7) (= cell_8_6 8) (= cell_8_6 9))))
(assert
 (let (($x9182 (= cell_9_6 1)))
 (or $x9182 (= cell_9_6 2) (= cell_9_6 3) (= cell_9_6 4) (= cell_9_6 5) (= cell_9_6 6) (= cell_9_6 7) (= cell_9_6 8) (= cell_9_6 9))))
(assert
 (let (($x3708 (= cell_1_7 9)))
 (let (($x3804 (= cell_1_7 8)))
 (let (($x4788 (= cell_1_7 7)))
 (let (($x2657 (= cell_1_7 6)))
 (let (($x7578 (= cell_1_7 5)))
 (let (($x8512 (= cell_1_7 4)))
 (let (($x7212 (= cell_1_7 3)))
 (let (($x1220 (= cell_1_7 2)))
 (let (($x1570 (= cell_1_7 1)))
 (or $x1570 $x1220 $x7212 $x8512 $x7578 $x2657 $x4788 $x3804 $x3708)))))))))))
(assert
 (let (($x2865 (= cell_2_7 9)))
 (let (($x7794 (= cell_2_7 8)))
 (let (($x332 (= cell_2_7 7)))
 (let (($x3639 (= cell_2_7 6)))
 (let (($x7688 (= cell_2_7 5)))
 (let (($x8723 (= cell_2_7 4)))
 (let (($x10253 (= cell_2_7 3)))
 (let (($x1841 (= cell_2_7 2)))
 (let (($x1194 (= cell_2_7 1)))
 (or $x1194 $x1841 $x10253 $x8723 $x7688 $x3639 $x332 $x7794 $x2865)))))))))))
(assert
 (let (($x1569 (= cell_3_7 1)))
 (or $x1569 (= cell_3_7 2) (= cell_3_7 3) (= cell_3_7 4) (= cell_3_7 5) (= cell_3_7 6) (= cell_3_7 7) (= cell_3_7 8) (= cell_3_7 9))))
(assert
 (let (($x2214 (= cell_4_7 9)))
 (let (($x645 (= cell_4_7 8)))
 (let (($x4666 (= cell_4_7 7)))
 (let (($x8125 (= cell_4_7 6)))
 (let (($x9366 (= cell_4_7 5)))
 (let (($x4975 (= cell_4_7 4)))
 (let (($x3560 (= cell_4_7 3)))
 (let (($x258 (= cell_4_7 2)))
 (let (($x5762 (= cell_4_7 1)))
 (or $x5762 $x258 $x3560 $x4975 $x9366 $x8125 $x4666 $x645 $x2214)))))))))))
(assert
 (let (($x5915 (= cell_5_7 9)))
 (let (($x7470 (= cell_5_7 8)))
 (let (($x6768 (= cell_5_7 7)))
 (let (($x8381 (= cell_5_7 6)))
 (let (($x8530 (= cell_5_7 5)))
 (let (($x9372 (= cell_5_7 4)))
 (let (($x6378 (= cell_5_7 3)))
 (let (($x6017 (= cell_5_7 2)))
 (let (($x2128 (= cell_5_7 1)))
 (or $x2128 $x6017 $x6378 $x9372 $x8530 $x8381 $x6768 $x7470 $x5915)))))))))))
(assert
 (let (($x1974 (= cell_6_7 9)))
 (let (($x9658 (= cell_6_7 8)))
 (let (($x4477 (= cell_6_7 7)))
 (let (($x773 (= cell_6_7 6)))
 (let (($x2734 (= cell_6_7 5)))
 (let (($x9565 (= cell_6_7 4)))
 (let (($x307 (= cell_6_7 3)))
 (let (($x6133 (= cell_6_7 2)))
 (let (($x4027 (= cell_6_7 1)))
 (or $x4027 $x6133 $x307 $x9565 $x2734 $x773 $x4477 $x9658 $x1974)))))))))))
(assert
 (let (($x7373 (= cell_7_7 1)))
 (or $x7373 (= cell_7_7 2) (= cell_7_7 3) (= cell_7_7 4) (= cell_7_7 5) (= cell_7_7 6) (= cell_7_7 7) (= cell_7_7 8) (= cell_7_7 9))))
(assert
 (let (($x785 (= cell_8_7 1)))
 (or $x785 (= cell_8_7 2) (= cell_8_7 3) (= cell_8_7 4) (= cell_8_7 5) (= cell_8_7 6) (= cell_8_7 7) (= cell_8_7 8) (= cell_8_7 9))))
(assert
 (let (($x1091 (= cell_9_7 1)))
 (or $x1091 (= cell_9_7 2) (= cell_9_7 3) (= cell_9_7 4) (= cell_9_7 5) (= cell_9_7 6) (= cell_9_7 7) (= cell_9_7 8) (= cell_9_7 9))))
(assert
 (let (($x8961 (= cell_1_8 9)))
 (let (($x2123 (= cell_1_8 8)))
 (let (($x5159 (= cell_1_8 7)))
 (let (($x7774 (= cell_1_8 6)))
 (let (($x9338 (= cell_1_8 5)))
 (let (($x8690 (= cell_1_8 4)))
 (let (($x2781 (= cell_1_8 3)))
 (let (($x8813 (= cell_1_8 2)))
 (let (($x2363 (= cell_1_8 1)))
 (or $x2363 $x8813 $x2781 $x8690 $x9338 $x7774 $x5159 $x2123 $x8961)))))))))))
(assert
 (let (($x4704 (= cell_2_8 9)))
 (let (($x9174 (= cell_2_8 8)))
 (let (($x3540 (= cell_2_8 7)))
 (let (($x9732 (= cell_2_8 6)))
 (let (($x7982 (= cell_2_8 5)))
 (let (($x8010 (= cell_2_8 4)))
 (let (($x8971 (= cell_2_8 3)))
 (let (($x680 (= cell_2_8 2)))
 (let (($x5391 (= cell_2_8 1)))
 (or $x5391 $x680 $x8971 $x8010 $x7982 $x9732 $x3540 $x9174 $x4704)))))))))))
(assert
 (let (($x159 (= cell_3_8 9)))
 (let (($x3447 (= cell_3_8 8)))
 (let (($x1596 (= cell_3_8 7)))
 (let (($x1875 (= cell_3_8 6)))
 (let (($x1367 (= cell_3_8 5)))
 (let (($x7319 (= cell_3_8 4)))
 (let (($x7486 (= cell_3_8 3)))
 (let (($x7022 (= cell_3_8 2)))
 (let (($x7516 (= cell_3_8 1)))
 (or $x7516 $x7022 $x7486 $x7319 $x1367 $x1875 $x1596 $x3447 $x159)))))))))))
(assert
 (let (($x362 (= cell_4_8 9)))
 (let (($x7012 (= cell_4_8 8)))
 (let (($x9231 (= cell_4_8 7)))
 (let (($x3651 (= cell_4_8 6)))
 (let (($x4405 (= cell_4_8 5)))
 (let (($x9143 (= cell_4_8 4)))
 (let (($x8542 (= cell_4_8 3)))
 (let (($x9822 (= cell_4_8 2)))
 (let (($x5790 (= cell_4_8 1)))
 (or $x5790 $x9822 $x8542 $x9143 $x4405 $x3651 $x9231 $x7012 $x362)))))))))))
(assert
 (let (($x308 (= cell_5_8 9)))
 (let (($x1055 (= cell_5_8 8)))
 (let (($x3414 (= cell_5_8 7)))
 (let (($x1226 (= cell_5_8 6)))
 (let (($x4840 (= cell_5_8 5)))
 (let (($x9640 (= cell_5_8 4)))
 (let (($x969 (= cell_5_8 3)))
 (let (($x4294 (= cell_5_8 2)))
 (let (($x2714 (= cell_5_8 1)))
 (or $x2714 $x4294 $x969 $x9640 $x4840 $x1226 $x3414 $x1055 $x308)))))))))))
(assert
 (let (($x7081 (= cell_6_8 1)))
 (or $x7081 (= cell_6_8 2) (= cell_6_8 3) (= cell_6_8 4) (= cell_6_8 5) (= cell_6_8 6) (= cell_6_8 7) (= cell_6_8 8) (= cell_6_8 9))))
(assert
 (let (($x1228 (= cell_7_8 1)))
 (or $x1228 (= cell_7_8 2) (= cell_7_8 3) (= cell_7_8 4) (= cell_7_8 5) (= cell_7_8 6) (= cell_7_8 7) (= cell_7_8 8) (= cell_7_8 9))))
(assert
 (let (($x2373 (= cell_8_8 1)))
 (or $x2373 (= cell_8_8 2) (= cell_8_8 3) (= cell_8_8 4) (= cell_8_8 5) (= cell_8_8 6) (= cell_8_8 7) (= cell_8_8 8) (= cell_8_8 9))))
(assert
 (let (($x2052 (= cell_9_8 1)))
 (or $x2052 (= cell_9_8 2) (= cell_9_8 3) (= cell_9_8 4) (= cell_9_8 5) (= cell_9_8 6) (= cell_9_8 7) (= cell_9_8 8) (= cell_9_8 9))))
(assert
 (let (($x10161 (= cell_1_9 9)))
 (let (($x3109 (= cell_1_9 8)))
 (let (($x904 (= cell_1_9 7)))
 (let (($x5459 (= cell_1_9 6)))
 (let (($x8715 (= cell_1_9 5)))
 (let (($x4727 (= cell_1_9 4)))
 (let (($x5515 (= cell_1_9 3)))
 (let (($x8673 (= cell_1_9 2)))
 (let (($x1894 (= cell_1_9 1)))
 (or $x1894 $x8673 $x5515 $x4727 $x8715 $x5459 $x904 $x3109 $x10161)))))))))))
(assert
 (let (($x8483 (= cell_2_9 9)))
 (let (($x8596 (= cell_2_9 8)))
 (let (($x32 (= cell_2_9 7)))
 (let (($x3290 (= cell_2_9 6)))
 (let (($x1581 (= cell_2_9 5)))
 (let (($x3102 (= cell_2_9 4)))
 (let (($x6783 (= cell_2_9 3)))
 (let (($x4082 (= cell_2_9 2)))
 (let (($x9482 (= cell_2_9 1)))
 (or $x9482 $x4082 $x6783 $x3102 $x1581 $x3290 $x32 $x8596 $x8483)))))))))))
(assert
 (let (($x5589 (= cell_3_9 1)))
 (or $x5589 (= cell_3_9 2) (= cell_3_9 3) (= cell_3_9 4) (= cell_3_9 5) (= cell_3_9 6) (= cell_3_9 7) (= cell_3_9 8) (= cell_3_9 9))))
(assert
 (let (($x6754 (= cell_4_9 9)))
 (let (($x1349 (= cell_4_9 8)))
 (let (($x597 (= cell_4_9 7)))
 (let (($x78 (= cell_4_9 6)))
 (let (($x4871 (= cell_4_9 5)))
 (let (($x6185 (= cell_4_9 4)))
 (let (($x9947 (= cell_4_9 3)))
 (let (($x3571 (= cell_4_9 2)))
 (let (($x9260 (= cell_4_9 1)))
 (or $x9260 $x3571 $x9947 $x6185 $x4871 $x78 $x597 $x1349 $x6754)))))))))))
(assert
 (let (($x1906 (= cell_5_9 9)))
 (let (($x1324 (= cell_5_9 8)))
 (let (($x65 (= cell_5_9 7)))
 (let (($x6163 (= cell_5_9 6)))
 (let (($x3278 (= cell_5_9 5)))
 (let (($x10171 (= cell_5_9 4)))
 (let (($x5476 (= cell_5_9 3)))
 (let (($x4320 (= cell_5_9 2)))
 (let (($x7288 (= cell_5_9 1)))
 (or $x7288 $x4320 $x5476 $x10171 $x3278 $x6163 $x65 $x1324 $x1906)))))))))))
(assert
 (let (($x9034 (= cell_6_9 1)))
 (or $x9034 (= cell_6_9 2) (= cell_6_9 3) (= cell_6_9 4) (= cell_6_9 5) (= cell_6_9 6) (= cell_6_9 7) (= cell_6_9 8) (= cell_6_9 9))))
(assert
 (or (= cell_7_9 1) (= cell_7_9 2) (= cell_7_9 3) (= cell_7_9 4) (= cell_7_9 5) (= cell_7_9 6) (= cell_7_9 7) (= cell_7_9 8) (= cell_7_9 9)))
(assert
 (let (($x5735 (= cell_8_9 1)))
 (or $x5735 (= cell_8_9 2) (= cell_8_9 3) (= cell_8_9 4) (= cell_8_9 5) (= cell_8_9 6) (= cell_8_9 7) (= cell_8_9 8) (= cell_8_9 9))))
(assert
 (or (= cell_9_9 1) (= cell_9_9 2) (= cell_9_9 3) (= cell_9_9 4) (= cell_9_9 5) (= cell_9_9 6) (= cell_9_9 7) (= cell_9_9 8) (= cell_9_9 9)))
(assert
 (and (distinct cell_1_1 cell_1_2 cell_1_3 cell_1_4 cell_1_5 cell_1_6 cell_1_7 cell_1_8 cell_1_9) true))
(assert
 (and (distinct cell_2_1 cell_2_2 cell_2_3 cell_2_4 cell_2_5 cell_2_6 cell_2_7 cell_2_8 cell_2_9) true))
(assert
 (and (distinct cell_3_1 cell_3_2 cell_3_3 cell_3_4 cell_3_5 cell_3_6 cell_3_7 cell_3_8 cell_3_9) true))
(assert
 (and (distinct cell_4_1 cell_4_2 cell_4_3 cell_4_4 cell_4_5 cell_4_6 cell_4_7 cell_4_8 cell_4_9) true))
(assert
 (and (distinct cell_5_1 cell_5_2 cell_5_3 cell_5_4 cell_5_5 cell_5_6 cell_5_7 cell_5_8 cell_5_9) true))
(assert
 (and (distinct cell_6_1 cell_6_2 cell_6_3 cell_6_4 cell_6_5 cell_6_6 cell_6_7 cell_6_8 cell_6_9) true))
(assert
 (and (distinct cell_7_1 cell_7_2 cell_7_3 cell_7_4 cell_7_5 cell_7_6 cell_7_7 cell_7_8 cell_7_9) true))
(assert
 (and (distinct cell_8_1 cell_8_2 cell_8_3 cell_8_4 cell_8_5 cell_8_6 cell_8_7 cell_8_8 cell_8_9) true))
(assert
 (and (distinct cell_9_1 cell_9_2 cell_9_3 cell_9_4 cell_9_5 cell_9_6 cell_9_7 cell_9_8 cell_9_9) true))
(assert
 (and (distinct cell_1_1 cell_2_1 cell_3_1 cell_4_1 cell_5_1 cell_6_1 cell_7_1 cell_8_1 cell_9_1) true))
(assert
 (and (distinct cell_1_2 cell_2_2 cell_3_2 cell_4_2 cell_5_2 cell_6_2 cell_7_2 cell_8_2 cell_9_2) true))
(assert
 (and (distinct cell_1_3 cell_2_3 cell_3_3 cell_4_3 cell_5_3 cell_6_3 cell_7_3 cell_8_3 cell_9_3) true))
(assert
 (and (distinct cell_1_4 cell_2_4 cell_3_4 cell_4_4 cell_5_4 cell_6_4 cell_7_4 cell_8_4 cell_9_4) true))
(assert
 (and (distinct cell_1_5 cell_2_5 cell_3_5 cell_4_5 cell_5_5 cell_6_5 cell_7_5 cell_8_5 cell_9_5) true))
(assert
 (and (distinct cell_1_6 cell_2_6 cell_3_6 cell_4_6 cell_5_6 cell_6_6 cell_7_6 cell_8_6 cell_9_6) true))
(assert
 (and (distinct cell_1_7 cell_2_7 cell_3_7 cell_4_7 cell_5_7 cell_6_7 cell_7_7 cell_8_7 cell_9_7) true))
(assert
 (and (distinct cell_1_8 cell_2_8 cell_3_8 cell_4_8 cell_5_8 cell_6_8 cell_7_8 cell_8_8 cell_9_8) true))
(assert
 (and (distinct cell_1_9 cell_2_9 cell_3_9 cell_4_9 cell_5_9 cell_6_9 cell_7_9 cell_8_9 cell_9_9) true))
(assert
 (and (distinct cell_1_1 cell_1_2 cell_1_3 cell_2_1 cell_2_2 cell_2_3 cell_3_1 cell_3_2 cell_3_3) true))
(assert
 (and (distinct cell_1_4 cell_1_5 cell_1_6 cell_2_4 cell_2_5 cell_2_6 cell_3_4 cell_3_5 cell_3_6) true))
(assert
 (and (distinct cell_1_7 cell_1_8 cell_1_9 cell_2_7 cell_2_8 cell_2_9 cell_3_7 cell_3_8 cell_3_9) true))
(assert
 (and (distinct cell_4_1 cell_4_2 cell_4_3 cell_5_1 cell_5_2 cell_5_3 cell_6_1 cell_6_2 cell_6_3) true))
(assert
 (and (distinct cell_4_4 cell_4_5 cell_4_6 cell_5_4 cell_5_5 cell_5_6 cell_6_4 cell_6_5 cell_6_6) true))
(assert
 (and (distinct cell_4_7 cell_4_8 cell_4_9 cell_5_7 cell_5_8 cell_5_9 cell_6_7 cell_6_8 cell_6_9) true))
(assert
 (and (distinct cell_7_1 cell_7_2 cell_7_3 cell_8_1 cell_8_2 cell_8_3 cell_9_1 cell_9_2 cell_9_3) true))
(assert
 (and (distinct cell_7_4 cell_7_5 cell_7_6 cell_8_4 cell_8_5 cell_8_6 cell_9_4 cell_9_5 cell_9_6) true))
(assert
 (and (distinct cell_7_7 cell_7_8 cell_7_9 cell_8_7 cell_8_8 cell_8_9 cell_9_7 cell_9_8 cell_9_9) true))
(assert
 (let (($x304 (and (distinct cell_5_9 cell_6_8 cell_7_7 cell_8_6) true)))
 (let (($x4585 (and (distinct cell_2_9 cell_3_8 cell_4_7 cell_5_6 cell_6_5 cell_7_4 cell_8_3 cell_9_2) true)))
 (let (($x8051 (and (distinct cell_1_8 cell_2_7 cell_3_6 cell_4_5 cell_5_4 cell_6_3 cell_7_2 cell_8_1) true)))
 (let (($x6297 (and (distinct cell_1_5 cell_2_4 cell_3_3 cell_4_2) true)))
 (let (($x2541 (and (distinct cell_5_1 cell_6_2 cell_7_3 cell_8_4) true)))
 (let (($x7464 (and (distinct cell_2_1 cell_3_2 cell_4_3 cell_5_4 cell_6_5 cell_7_6 cell_8_7 cell_9_8) true)))
 (let (($x795 (and (distinct cell_1_2 cell_2_3 cell_3_4 cell_4_5 cell_5_6 cell_6_7 cell_7_8 cell_8_9) true)))
 (let (($x2607 (and (distinct cell_1_5 cell_2_6 cell_3_7 cell_4_8) true)))
 (and $x2607 $x795 $x7464 $x2541 $x6297 $x8051 $x4585 $x304))))))))))
(assert
 (and (distinct cell_7_5 1) true))
(check-sat)
